125
Lattice="-8.75 8.75 8.75 8.75 -8.75 8.75 8.75 8.75 -8.75" Properties=species:S:1:pos:R:3 pbc="T T T"
Li       0.00000000       0.00000000       0.00000000
Li       1.75000000       1.75000000      -1.75000000
Li       3.50000000       3.50000000      -3.50000000
Li       5.25000000       5.25000000      -5.25000000
Li       7.00000000       7.00000000      -7.00000000
Li       1.75000000      -1.75000000       1.75000000
Li       3.50000000       0.00000000       0.00000000
Li       5.25000000       1.75000000      -1.75000000
Li       7.00000000       3.50000000      -3.50000000
Li       8.75000000       5.25000000      -5.25000000
Li       3.50000000      -3.50000000       3.50000000
Li       5.25000000      -1.75000000       1.75000000
Li       7.00000000       0.00000000       0.00000000
Li       8.75000000       1.75000000      -1.75000000
Li      10.50000000       3.50000000      -3.50000000
Li       5.25000000      -5.25000000       5.25000000
Li       7.00000000      -3.50000000       3.50000000
Li       8.75000000      -1.75000000       1.75000000
Li      10.50000000       0.00000000       0.00000000
Li      12.25000000       1.75000000      -1.75000000
Li       7.00000000      -7.00000000       7.00000000
Li       8.75000000      -5.25000000       5.25000000
Li      10.50000000      -3.50000000       3.50000000
Li      12.25000000      -1.75000000       1.75000000
Li      14.00000000       0.00000000       0.00000000
Li      -1.75000000       1.75000000       1.75000000
Li       0.00000000       3.50000000       0.00000000
Li       1.75000000       5.25000000      -1.75000000
Li       3.50000000       7.00000000      -3.50000000
Li       5.25000000       8.75000000      -5.25000000
Li       0.00000000       0.00000000       3.50000000
Li       1.75000000       1.75000000       1.75000000
Li       3.50000000       3.50000000       0.00000000
Li       5.25000000       5.25000000      -1.75000000
Li       7.00000000       7.00000000      -3.50000000
Li       1.75000000      -1.75000000       5.25000000
Li       3.50000000       0.00000000       3.50000000
Li       5.25000000       1.75000000       1.75000000
Li       7.00000000       3.50000000       0.00000000
Li       8.75000000       5.25000000      -1.75000000
Li       3.50000000      -3.50000000       7.00000000
Li       5.25000000      -1.75000000       5.25000000
Li       7.00000000       0.00000000       3.50000000
Li       8.75000000       1.75000000       1.75000000
Li      10.50000000       3.50000000       0.00000000
Li       5.25000000      -5.25000000       8.75000000
Li       7.00000000      -3.50000000       7.00000000
Li       8.75000000      -1.75000000       5.25000000
Li      10.50000000       0.00000000       3.50000000
Li      12.25000000       1.75000000       1.75000000
Li      -3.50000000       3.50000000       3.50000000
Li      -1.75000000       5.25000000       1.75000000
Li       0.00000000       7.00000000       0.00000000
Li       1.75000000       8.75000000      -1.75000000
Li       3.50000000      10.50000000      -3.50000000
Li      -1.75000000       1.75000000       5.25000000
Li       0.00000000       3.50000000       3.50000000
Li       1.75000000       5.25000000       1.75000000
Li       3.50000000       7.00000000       0.00000000
Li       5.25000000       8.75000000      -1.75000000
Li       0.00000000       0.00000000       7.00000000
Li       1.75000000       1.75000000       5.25000000
Li       3.50000000       3.50000000       3.50000000
Li       5.25000000       5.25000000       1.75000000
Li       7.00000000       7.00000000       0.00000000
Li       1.75000000      -1.75000000       8.75000000
Li       3.50000000       0.00000000       7.00000000
Li       5.25000000       1.75000000       5.25000000
Li       7.00000000       3.50000000       3.50000000
Li       8.75000000       5.25000000       1.75000000
Li       3.50000000      -3.50000000      10.50000000
Li       5.25000000      -1.75000000       8.75000000
Li       7.00000000       0.00000000       7.00000000
Li       8.75000000       1.75000000       5.25000000
Li      10.50000000       3.50000000       3.50000000
Li      -5.25000000       5.25000000       5.25000000
Li      -3.50000000       7.00000000       3.50000000
Li      -1.75000000       8.75000000       1.75000000
Li       0.00000000      10.50000000       0.00000000
Li       1.75000000      12.25000000      -1.75000000
Li      -3.50000000       3.50000000       7.00000000
Li      -1.75000000       5.25000000       5.25000000
Li       0.00000000       7.00000000       3.50000000
Li       1.75000000       8.75000000       1.75000000
Li       3.50000000      10.50000000       0.00000000
Li      -1.75000000       1.75000000       8.75000000
Li       0.00000000       3.50000000       7.00000000
Li       1.75000000       5.25000000       5.25000000
Li       3.50000000       7.00000000       3.50000000
Li       5.25000000       8.75000000       1.75000000
Li       0.00000000       0.00000000      10.50000000
Li       1.75000000       1.75000000       8.75000000
Li       3.50000000       3.50000000       7.00000000
Li       5.25000000       5.25000000       5.25000000
Li       7.00000000       7.00000000       3.50000000
Li       1.75000000      -1.75000000      12.25000000
Li       3.50000000       0.00000000      10.50000000
Li       5.25000000       1.75000000       8.75000000
Li       7.00000000       3.50000000       7.00000000
Li       8.75000000       5.25000000       5.25000000
Li      -7.00000000       7.00000000       7.00000000
Li      -5.25000000       8.75000000       5.25000000
Li      -3.50000000      10.50000000       3.50000000
Li      -1.75000000      12.25000000       1.75000000
Li       0.00000000      14.00000000       0.00000000
Li      -5.25000000       5.25000000       8.75000000
Li      -3.50000000       7.00000000       7.00000000
Li      -1.75000000       8.75000000       5.25000000
Li       0.00000000      10.50000000       3.50000000
Li       1.75000000      12.25000000       1.75000000
Li      -3.50000000       3.50000000      10.50000000
Li      -1.75000000       5.25000000       8.75000000
Li       0.00000000       7.00000000       7.00000000
Li       1.75000000       8.75000000       5.25000000
Li       3.50000000      10.50000000       3.50000000
Li      -1.75000000       1.75000000      12.25000000
Li       0.00000000       3.50000000      10.50000000
Li       1.75000000       5.25000000       8.75000000
Li       3.50000000       7.00000000       7.00000000
Li       5.25000000       8.75000000       5.25000000
Li       0.00000000       0.00000000      14.00000000
Li       1.75000000       1.75000000      12.25000000
Li       3.50000000       3.50000000      10.50000000
Li       5.25000000       5.25000000       8.75000000
Li       7.00000000       7.00000000       7.00000000
